x06m05e0t1tp5
3239
3239
3239
3239
3239
3239
3239
3239
3239
3239
3239
3239
3239
3239
3239
3239
3239
3239
3239
3239
3239
3239
3239
3239
3239
3246
3246
3303
3303
3303
3303
3445
3445
3445
3445
3445
3445
3445
3445
3445
3445
3445
3445
3445
3445
3445
3445
3445
3445
3445
3445
3445
3445
3445
3445
3445
3445
3445
3445
3445
3445
3445
3445
3445
3445
3445
3445
3445
3445
3445
3445
3585
3585
3585
3585
3585
3585
3585
3585
3585
3585
3585
3585
3585
3585
3585
3585
3585
3585
3585
3585
3585
3585
3585
3585
3585
3585
3585
3585
3585
3585
3585
3585
3585
3585
3585
3585
3585
3585
3585
3585
3585
3585
3585
3585
3585
3585
3585
3585
3585
3585
3585
3585
3585
3585
3585
3585
3585
3585
3585
3585
3585
3585
3585
3585
3585
3585
3585
3585
3585
3585
3585
3585
3585
3585
3585
3585
3585
3585
3585
3585
3585
3585
3585
3585
3585
3585
3585
3585
3585
3585
3585
3585
3585
3585
3585
3585
3585
3585
3585
3585
3585
3585
3585
3585
3585
3585
3585
3585
3585
3585
3585
3585
3585
3585
3585
3585
3585
3585
3585
3585
3585
3585
3585
3585
3585
3585
3585
3585
3585
3585
3585
3585
3585
3585
3585
3585
3585
3585
3585
3585
3585
3585
3585
3585
3585
3585
3585
3585
3585
3585
3585
3585
3585
3585
3585
3585
3585
3585
3585
3585
3585
3585
3585
3585
3585
3585
3585
3585
3585
3585
3585
3585
3585
3585
3585
3585
3585
3585
3585
3585
3585
3585
3585
3585
3585
3585
3585
3585
3585
3585
3585
3585
3585
3585
3585
3585
3585
3585
3585
3585
3585
3585
3585
3585
3585
3585
3585
3585
3585
3585
3585
3585
3585
3585
3585
3585
3585
3585
3585
3585
3585
3585
3585
3585
3585
3585
3585
3585
3585
3585
3585
3585
3585
3585
3585
3585
3585
3585
3585
3585
3585
3585
3585
3585
3585
3585
3585
3585
3585
3585
3585
3585
3585
3585
3585
3585
3585
3585
3585
3585
3585
3585
3585
3585
3585
3585
3585
3585
3585
3585
3585
3585
3585
3585
3585
3585
3585
3585
3585
3585
3585
3585
3585
3585
3585
3585
3585
3585
3585
3585
3585
3585
3585
3585
3585
3585
3585
3585
3585
3585
3585
3585
3585
3585
3585
3585
3585
3585
3585
3585
3585
3585
3585
3585
3585
3585
3585
3585
3585
3585
3585
3585
3585
3585
3585
3585
3585
3585
3585
3585
3585
3585
3585
3585
3585
3585
3585
3585
3585
3585
3585
3585
3585
3585
3585
3585
3585
3585
3585
3585
3585
3585
3585
3585
3585
3585
3585
3585
3585
3585
3585
3585
3585
3585
3585
3585
3585
3585
3585
3585
3585
3585
3585
3585
3585
3585
3585
3585
3585
3585
3585
3585
3585
3585
3585
3585
3585
3585
3585
3585
3585
3585
3585
3585
3585
3585
3585
3585
3585
3585
3585
3585
3585
3585
3585
3585
3585
3585
3585
3585
3585
3585
3585
3585
3585
3585
3585
3585
3585
3585
3585
3585
3585
3585
3585
3585
3585
3585
3585
3585
3585
3585
3585
3585
3585
3585
3585
3585
3585
3585
3585
3585
3585
3585
3585
3585
3585
3585
3585
3585
3585
3585
3585
3585
3585
3585
3585
3585
3585
3585
3585
3585
3585
3585
3585
3585
3585
3585
3585
3585
3585
3585
3585
3585
3585
3585
3585
3585
3585
3585
3585
3585
3585
3585
3585
3585
3585
3585
3585
3585
3585
3585
3585
3585
3585
3585
3585
3585
3585
3585
3585
3585
3585
3585
3585
3585
3585
3585
3585
3585
3585
3585
3585
3585
3585
3585
3585
3585
3585
3585
3585
3585
3585
3585
3585
3585
3585
3585
3585
3585
3585
3585
3585
3585
3585
3585
3585
3585
3585
3585
3585
3585
3585
3585
3585
3585
3585
3585
3585
3585
3585
3585
3585
3585
3585
3585
3585
3585
3585
3585
3585
3585
3585
3585
3585
3585
3585
3585
3585
3585
3585
3585
3585
3585
3585
3585
3585
3585
3585
3585
3585
3585
3585
3585
3585
3585
3585
3585
3585
3585
3585
3585
3585
3585
3585
3585
3585
3585
3585
3585
3585
3585
3585
3585
3585
3585
3585
3585
3585
3585
3585
3585
3585
3585
3585
3585
3585
3585
3585
3585
3585
3585
3585
3585
3585
3585
3585
3585
3585
3585
3585
3585
3585
3585
3585
3585
3585
3585
3585
3585
3585
3585
3585
3585
3585
3585
3585
3585
3585
3585
3585
3585
3585
3585
3585
3585
3585
3585
3585
3585
3585
3585
3585
3585
3585
3585
3585
3585
3585
3585
3585
3585
3585
3585
3585
3585
3585
3585
3585
3585
3585
3585
3585
3585
3585
3585
3585
3585
3585
3585
3585
3585
3585
3585
3585
3585
3585
3585
3585
3585
3585
3585
3585
3585
3585
3585
3585
3585
3585
3585
3585
3585
3585
3585
3585
3585
3585
3585
3585
3585
3585
3585
3585
3585
3585
3585
3585
3585
3585
3585
3585
3585
3585
3585
3585
3585
3585
3585
3585
3585
3585
3585
3585
3585
3585
3585
3585
3585
3585
3585
3585
3585
3585
3585
3585
3585
3585
3585
3585
3585
3585
3585
3585
3585
3585
3585
3585
3585
3585
3585
3585
3585
3585
3585
3585
3585
3585
3585
3585
3585
3585
3585
3585
3585
3585
3585
3585
3585
3585
3585
3585
3585
3585
3585
3585
3585
3585
3585
3585
3585
3585
3585
3585
3585
3585
3585
3585
3585
3585
3585
3585
3585
3585
3585
3585
3585
3585
3585
3585
3585
3585
3585
3585
3585
3585
3585
3585
3585
3585
3585
3585
3585
3585
3585
3585
3585
3585
3585
3585
3585
3585
3585
3585
3585
3585
3585
3585
3585
3585
3585
3585
3585
3585
3585
3585
3585
3585
3585
3585
3585
3585
3585
3585
3585
3585
3585
3585
3585
3585
3585
3585
3585
3585
3585
3585
3585
3585
3585
3585
3585
3585
3585
3585
3585
3585
3585
3585
3585
3585
3585
3585
3585
3585
3585
3585
3585
3585
3585
3585
3585
3585
3585
3585
3585
3585
3585
3585
3585
3585
3585
3585
3585
3585
3585
3585
3585
3585
3585
3585
3585
3585
3585
3585
3585
3585
3585
3585
3585
3585
